# Objective value = 150000
x.0.0 0
x.0.1 0
x.0.2 0
x.1.0 0
x.1.1 0
x.1.2 0
x.2.0 0
x.2.1 0
x.2.2 0
x.3.0 0
x.3.1 0
x.3.2 0
d.0.1 0
d.0.2 0
d.0.3 0
d.1.2 0
d.1.3 0
d.2.3 0
g.0 1
g.1 1
g.2 1
Zero 0
